;; produced by cvc5.drv ;;
(set-logic ALL)
(set-info :smt-lib-version 2.6)
;;; generated by SMT-LIB2 driver
;;; SMT-LIB2 driver: bit-vectors, common part
;;; SMT-LIB2: integer arithmetic
(define-fun __cdiv ((x Int) (y Int)) Int (ite (>= x 0) (div x y) (- (div (- x) y))))
(define-fun __cmod ((x Int) (y Int)) Int (ite (>= x 0) (mod x y) (- (mod (- x) y))))
(declare-datatypes ((tuple0 0))
  (((Tuple0))))

(declare-sort us_private 0)

(declare-const us_null_ext__ us_private)

(declare-sort integer 0)

;; "integer'int"
(declare-fun integerqtint (integer) Int)

;; "integer'axiom"
(assert
  (forall ((i integer))
    (and
      (<= (- 2147483648) (integerqtint i))
      (<= (integerqtint i) 2147483647))))

;; "in_range"
(define-fun in_range ((x Int)) Bool
  (and (<= (- 2147483648) x) (<= x 2147483647)))

;; "in_range"
(define-fun in_range1 ((x Int)) Bool
  (and (<= 1 x) (<= x 2147483647)))

(declare-sort character 0)

;; "in_range"
(define-fun in_range2 ((x Int)) Bool
  (and (<= 0 x) (<= x 255)))

;; "to_rep"
(declare-fun to_rep (character) Int)

;; "of_rep"
(declare-fun of_rep (Int) character)

;; "inversion_axiom"
(assert
  (forall ((x character))
    (! (= (of_rep (to_rep x)) x) :pattern ((to_rep x)) )))

;; "range_axiom"
(assert
  (forall ((x character)) (! (in_range2 (to_rep x)) :pattern ((to_rep x)) )))

;; "coerce_axiom"
(assert
  (forall ((x Int))
    (! (=> (in_range2 x) (= (to_rep (of_rep x)) x)) :pattern ((to_rep
                                                                (of_rep x))) )))

;; "to_rep"
(define-fun to_rep1 ((x integer)) Int
  (integerqtint x))

;; "of_rep"
(declare-fun of_rep1 (Int) integer)

;; "inversion_axiom"
(assert
  (forall ((x integer))
    (! (= (of_rep1 (to_rep1 x)) x) :pattern ((to_rep1 x)) )))

;; "range_axiom"
(assert
  (forall ((x integer)) (! (in_range (to_rep1 x)) :pattern ((to_rep1 x)) )))

;; "coerce_axiom"
(assert
  (forall ((x Int))
    (! (=> (in_range x) (= (to_rep1 (of_rep1 x)) x)) :pattern ((to_rep1
                                                                 (of_rep1 x))) )))

(declare-datatypes ((t 0))
  (((tqtmk (rec__first integer)(rec__last integer)))))

;; "dynamic_property"
(define-fun dynamic_property ((range_first Int) (range_last Int) (low Int) (high Int)) Bool
  (and
    (in_range low)
    (and
      (in_range high)
      (=> (<= low high) (and (in_range1 low) (in_range1 high))))))

(declare-datatypes ((us_t 0))
  (((us_tqtmk (elts (Array Int character))(rt t)))))

;; "to_array"
(define-fun to_array ((a us_t)) (Array Int character)
  (elts a))

;; "first"
(define-fun first ((a us_t)) Int
  (to_rep1 (rec__first (rt a))))

;; "last"
(define-fun last ((a us_t)) Int
  (to_rep1 (rec__last (rt a))))

;; "length"
(define-fun length ((a us_t)) Int
  (ite (<= (first a) (last a)) (+ (- (last a) (first a)) 1) 0))

(declare-const value__size Int)

(declare-const object__size Int)

(declare-const component__size Int)

(declare-const alignment Int)

;; "value__size_axiom"
(assert (<= 0 value__size))

;; "object__size_axiom"
(assert (<= 0 object__size))

;; "component__size_axiom"
(assert (<= 0 component__size))

;; "alignment_axiom"
(assert (<= 0 alignment))

;; "dynamic_invariant"
(define-fun dynamic_invariant ((temp___expr_110 us_t) (temp___is_init_106 Bool) (temp___skip_constant_107 Bool) (temp___do_toplevel_108 Bool) (temp___do_typ_inv_109 Bool)) Bool
  (=>
    (not (= temp___skip_constant_107 true))
    (dynamic_property
      1
      2147483647
      (first temp___expr_110)
      (last temp___expr_110))))

(declare-const last32 (Array Int character))

(declare-sort integer_32 0)

;; "integer_32'int"
(declare-fun integer_32qtint (integer_32) Int)

;; "integer_32'axiom"
(assert
  (forall ((i integer_32))
    (and
      (<= (- 2147483648) (integer_32qtint i))
      (<= (integer_32qtint i) 2147483647))))

;; "in_range"
(define-fun in_range3 ((x Int)) Bool
  (and (<= (- 2147483648) x) (<= x 2147483647)))

(declare-const dummy integer_32)

;; "to_rep"
(define-fun to_rep2 ((x integer_32)) Int
  (integer_32qtint x))

;; "of_rep"
(declare-fun of_rep2 (Int) integer_32)

;; "inversion_axiom"
(assert
  (forall ((x integer_32))
    (! (= (of_rep2 (to_rep2 x)) x) :pattern ((to_rep2 x)) )))

;; "range_axiom"
(assert
  (forall ((x integer_32))
    (! (in_range3 (to_rep2 x)) :pattern ((to_rep2 x)) )))

;; "coerce_axiom"
(assert
  (forall ((x Int))
    (! (=> (in_range3 x) (= (to_rep2 (of_rep2 x)) x)) :pattern ((to_rep2
                                                                  (of_rep2 x))) )))

;; "char_to_int"
(define-fun char_to_int ((param__c Int)) Int
  (ite (= param__c 48)
    0
    (ite (= param__c 49)
      1
      (ite (= param__c 50)
        2
        (ite (= param__c 51)
          3
          (ite (= param__c 52)
            4
            (ite (= param__c 53)
              5
              (ite (= param__c 54)
                6
                (ite (= param__c 55)
                  7
                  (ite (= param__c 56)
                    8
                    (ite (= param__c 57) 9 (to_rep2 dummy))))))))))))

;; "is_integer_32"
(declare-fun is_integer_32 (us_t
  Int
  Int
  Int) Bool)

(declare-const s us_t)

(declare-const tens (Array Int integer_32))

(declare-const is_pos Bool)

(declare-const firstz Int)

(declare-const r70b Int)

;; "in_range"
(define-fun in_range4 ((x Int)) Bool
  (and (<= (- 2147483648) x) (<= x 2147483647)))

(declare-const value__size1 Int)

(declare-const object__size1 Int)

(declare-const component__size1 Int)

(declare-const alignment1 Int)

;; "value__size_axiom"
(assert (<= 0 value__size1))

;; "object__size_axiom"
(assert (<= 0 object__size1))

;; "component__size_axiom"
(assert (<= 0 component__size1))

;; "alignment_axiom"
(assert (<= 0 alignment1))

(declare-const value__size2 Int)

(declare-const object__size2 Int)

(declare-const component__size2 Int)

(declare-const alignment2 Int)

;; "value__size_axiom"
(assert (<= 0 value__size2))

;; "object__size_axiom"
(assert (<= 0 object__size2))

;; "component__size_axiom"
(assert (<= 0 component__size2))

;; "alignment_axiom"
(assert (<= 0 alignment2))

;; "integer32_parsing__tens__aggregate_def"
(declare-fun integer32_parsing__tens__aggregate_def (Int
  Int
  Int
  Int
  Int
  Int
  Int
  Int
  Int
  Int) (Array Int integer_32))

;; "temp___String_Literal_169"
(declare-fun temp___String_Literal_169 (tuple0) (Array Int character))

;; "temp___String_Literal_169__def_axiom"
(assert
  (forall ((us_void_param tuple0))
    (! (and
         (and
           (= (to_rep (select (temp___String_Literal_169 us_void_param) 1)) 50)
           (= (to_rep (select (temp___String_Literal_169 us_void_param) 2)) 49))
         (and
           (and
             (and
               (= (to_rep
                    (select (temp___String_Literal_169 us_void_param) 3)) 52)
               (= (to_rep
                    (select (temp___String_Literal_169 us_void_param) 4)) 55))
             (and
               (= (to_rep
                    (select (temp___String_Literal_169 us_void_param) 5)) 52)
               (= (to_rep
                    (select (temp___String_Literal_169 us_void_param) 6)) 56)))
           (and
             (and
               (= (to_rep
                    (select (temp___String_Literal_169 us_void_param) 7)) 51)
               (= (to_rep
                    (select (temp___String_Literal_169 us_void_param) 8)) 54))
             (and
               (= (to_rep
                    (select (temp___String_Literal_169 us_void_param) 9)) 52)
               (= (to_rep
                    (select (temp___String_Literal_169 us_void_param) 10)) 55))))) :pattern (
    (temp___String_Literal_169
      us_void_param)) )))

;; "last32__def_axiom"
(assert
  (= last32 (let ((temp___170qtunused (temp___String_Literal_169 Tuple0)))
              (temp___String_Literal_169 Tuple0))))

;; "tens__def_axiom"
(assert
  (= tens (let ((temp___195qtunused (integer32_parsing__tens__aggregate_def
                                      1
                                      10
                                      100
                                      1000
                                      10000
                                      100000
                                      1000000
                                      10000000
                                      100000000
                                      1000000000)))
            (integer32_parsing__tens__aggregate_def
              1
              10
              100
              1000
              10000
              100000
              1000000
              10000000
              100000000
              1000000000))))

(declare-const rliteral integer_32)

;; "rliteral_axiom"
(assert (= (integer_32qtint rliteral) 1))

(declare-const rliteral1 integer_32)

;; "rliteral_axiom"
(assert (= (integer_32qtint rliteral1) 10))

(declare-const rliteral2 integer_32)

;; "rliteral_axiom"
(assert (= (integer_32qtint rliteral2) 100))

(declare-const rliteral3 integer_32)

;; "rliteral_axiom"
(assert (= (integer_32qtint rliteral3) 1000))

(declare-const rliteral4 integer_32)

;; "rliteral_axiom"
(assert (= (integer_32qtint rliteral4) 10000))

(declare-const rliteral5 integer_32)

;; "rliteral_axiom"
(assert (= (integer_32qtint rliteral5) 100000))

(declare-const rliteral6 integer_32)

;; "rliteral_axiom"
(assert (= (integer_32qtint rliteral6) 1000000))

(declare-const rliteral7 integer_32)

;; "rliteral_axiom"
(assert (= (integer_32qtint rliteral7) 10000000))

(declare-const rliteral8 integer_32)

;; "rliteral_axiom"
(assert (= (integer_32qtint rliteral8) 100000000))

(declare-const rliteral9 integer_32)

;; "rliteral_axiom"
(assert (= (integer_32qtint rliteral9) 1000000000))

;; "def_axiom"
(assert
  (forall ((temp___182 Int) (temp___183 Int) (temp___184 Int) (temp___185 Int) (temp___186 Int) (temp___187 Int) (temp___188 Int) (temp___189 Int) (temp___190 Int) (temp___191 Int))
    (let ((temp___192 (integer32_parsing__tens__aggregate_def
                        temp___182
                        temp___183
                        temp___184
                        temp___185
                        temp___186
                        temp___187
                        temp___188
                        temp___189
                        temp___190
                        temp___191)))
      (and
        (and
          (= (select temp___192 1) rliteral)
          (= (select temp___192 2) rliteral1))
        (and
          (and
            (and
              (= (select temp___192 3) rliteral2)
              (= (select temp___192 4) rliteral3))
            (and
              (= (select temp___192 5) rliteral4)
              (= (select temp___192 6) rliteral5)))
          (and
            (and
              (= (select temp___192 7) rliteral6)
              (= (select temp___192 8) rliteral7))
            (and
              (= (select temp___192 9) rliteral8)
              (= (select temp___192 10) rliteral9))))))))

;; "is_integer_32__post_axiom"
(assert true)

;; "is_integer_32__def_axiom"
(assert
  (forall ((param__s us_t))
    (forall ((param__first Int) (param__last Int) (param__v Int))
      (! (=
           (= (is_integer_32 param__s param__first param__last param__v) true)
           (and
             (= (char_to_int
                  (to_rep (select (to_array param__s) param__last))) (abs (__cmod param__v 10)))
             (ite (not (= param__last param__first))
               (= (is_integer_32
                    param__s
                    param__first
                    (- param__last 1)
                    (__cdiv param__v 10)) true)
               (and (<= (- 9) param__v) (<= param__v 9))))) :pattern (
      (is_integer_32
        param__s
        param__first
        param__last
        param__v)) ))))

;; Goal "def'vc"
;; File "integer32_parsing.ads", line 47, characters 0-0
(assert
  (not
  (forall ((v Int) (first1 Int))
    (forall ((temp___559 (Array Int integer_32)))
      (=>
        (and
          (and
            (and
              (= (select temp___559 1) rliteral)
              (= (select temp___559 2) rliteral1))
            (and
              (and
                (and
                  (= (select temp___559 3) rliteral2)
                  (= (select temp___559 4) rliteral3))
                (and
                  (= (select temp___559 5) rliteral4)
                  (= (select temp___559 6) rliteral5)))
              (and
                (and
                  (= (select temp___559 7) rliteral6)
                  (= (select temp___559 8) rliteral7))
                (and
                  (= (select temp___559 9) rliteral8)
                  (= (select temp___559 10) rliteral9)))))
          (= temp___559 (integer32_parsing__tens__aggregate_def
                          1
                          10
                          100
                          1000
                          10000
                          100000
                          1000000
                          10000000
                          100000000
                          1000000000)))
        (=>
          (= temp___559 tens)
          (=>
            (dynamic_invariant s true false true true)
            (=>
              (in_range3 v)
              (=>
                (< (last s) 2147483647)
                (forall ((integer32_parsing__parse_int_32__2__is_pos__assume Bool))
                  (=>
                    (ite (= (length s) 0)
                      (= integer32_parsing__parse_int_32__2__is_pos__assume true)
                      (let ((temp___522 (first s)))
                        (and
                          (and
                            (<= (first s) temp___522)
                            (<= temp___522 (last s)))
                          (exists ((o Int))
                            (and
                              (= (to_rep (select (to_array s) temp___522)) o)
                              (= integer32_parsing__parse_int_32__2__is_pos__assume 
                              (ite (= o 45)
                                false
                                true)))))))
                    (=>
                      (= integer32_parsing__parse_int_32__2__is_pos__assume 
                      is_pos)
                      (forall ((integer32_parsing__parse_int_32__2__firstz__assume Int))
                        (=>
                          (ite (= is_pos true)
                            (= integer32_parsing__parse_int_32__2__firstz__assume 
                            (first
                              s))
                            (let ((o (+ (first s) 1)))
                              (and
                                (= integer32_parsing__parse_int_32__2__firstz__assume o)
                                (in_range o))))
                          (=>
                            (= integer32_parsing__parse_int_32__2__firstz__assume 
                            firstz)
                            (=>
                              (in_range firstz)
                              (=>
                                (in_range first1)
                                (forall ((v1 Int))
                                  (=>
                                    (= v1 0)
                                    (forall ((error Bool))
                                      (=>
                                        (= error (distinct 1 0))
                                        (forall ((spark__branch Bool))
                                          (=>
                                            (= spark__branch (ite (< 
                                                               (last s) 
                                                               firstz)
                                                               true
                                                               false))
                                            (=>
                                              (not (= spark__branch true))
                                              (forall ((o Int))
                                                (=>
                                                  (exists ((o1 Bool))
                                                    (and
                                                      (ite (< (last s) 
                                                        firstz)
                                                        (= o1 true)
                                                        (let ((o2 (- 
                                                          (last s) firstz)))
                                                          (and
                                                            (in_range o2)
                                                            (= o1 (ite (<= o2 9)
                                                                    true
                                                                    false)))))
                                                      (ite (= o1 true)
                                                        (= o firstz)
                                                        (let ((o2 (- 
                                                          (last s) 9)))
                                                          (and
                                                            (= o o2)
                                                            (in_range o2))))))
                                                  (forall ((first2 Int))
                                                    (=>
                                                      (= first2 o)
                                                      (let ((o1 (- first2 1)))
                                                        (=>
                                                          (in_range o1)
                                                          (=>
                                                            (= o1 r70b)
                                                            (=>
                                                              (in_range r70b)
                                                              (forall 
                                                                ((spark__branch1 Bool))
                                                                (=>
                                                                  (let ((temp___526 
                                                                    firstz))
                                                                    (let ((temp___527 
                                                                    r70b))
                                                                    (exists 
                                                                    ((i Int))
                                                                    (and
                                                                    (= i temp___526)
                                                                    (ite (= (and 
                                                                    (ite (<= temp___526 i)
                                                                    true
                                                                    false) 
                                                                    (ite (<= i temp___527)
                                                                    true
                                                                    false)) true)
                                                                    (and
                                                                    (and
                                                                    (<= 
                                                                    (first
                                                                    s) i)
                                                                    (<= i 
                                                                    (last
                                                                    s)))
                                                                    (exists 
                                                                    ((o2 Int))
                                                                    (and
                                                                    (= 
                                                                    (to_rep
                                                                    (select 
                                                                    (to_array
                                                                    s) i)) o2)
                                                                    (exists 
                                                                    ((spark__branch2 Bool))
                                                                    (and
                                                                    (= spark__branch2 
                                                                    (ite (= o2 48)
                                                                    false
                                                                    true))
                                                                    (and
                                                                    (not
                                                                    (= spark__branch2 true))
                                                                    (exists 
                                                                    ((i1 Int))
                                                                    (and
                                                                    (and
                                                                    (forall 
                                                                    ((k Int))
                                                                    (=>
                                                                    (and
                                                                    (<= 
                                                                    firstz k)
                                                                    (<= k i1))
                                                                    (= 
                                                                    (to_rep
                                                                    (select 
                                                                    (to_array
                                                                    s) k)) 48)))
                                                                    (= 
                                                                    (is_integer_32
                                                                    s
                                                                    firstz
                                                                    i1
                                                                    v1) true))
                                                                    (and
                                                                    (and
                                                                    (<= 
                                                                    firstz i1)
                                                                    (<= i1 
                                                                    r70b))
                                                                    (= i1 temp___527))))))))))
                                                                    (= spark__branch1 spark__branch))))))
                                                                  (=>
                                                                    (=>
                                                                    (not
                                                                    (= 
                                                                    firstz first2))
                                                                    (= 
                                                                    (is_integer_32
                                                                    s
                                                                    firstz
                                                                    (- first2 1)
                                                                    v1) true))
                                                                    (forall 
                                                                    ((i Int))
                                                                    (=>
                                                                    (= i 1)
                                                                    (=>
                                                                    (= (and 
                                                                    (ite (<= 1 i)
                                                                    true
                                                                    false) 
                                                                    (ite (<= i 10)
                                                                    true
                                                                    false)) true)
                                                                    (forall 
                                                                    ((v2 Int) (error1 Bool) (i1 Int))
                                                                    (=>
                                                                    (= (and 
                                                                    (ite 
                                                                    (and
                                                                    (in_range3
                                                                    v2)
                                                                    (= error1 error))
                                                                    true
                                                                    false) 
                                                                    (ite 
                                                                    (and
                                                                    (<= 1 i1)
                                                                    (<= i1 10))
                                                                    true
                                                                    false)) true)
                                                                    (let ((o2 (+ (- i1 1) first2)))
                                                                    (=>
                                                                    (in_range
                                                                    o2)
                                                                    (=>
                                                                    (and
                                                                    (<= 
                                                                    (first
                                                                    s) o2)
                                                                    (<= o2 
                                                                    (last
                                                                    s)))
                                                                    (forall 
                                                                    ((temp___534 Int))
                                                                    (=>
                                                                    (= 
                                                                    (to_rep
                                                                    (select 
                                                                    (to_array
                                                                    s) o2)) temp___534)
                                                                    (forall 
                                                                    ((spark__branch2 Bool))
                                                                    (=>
                                                                    (= spark__branch2 
                                                                    (ite (= (and 
                                                                    (ite (<= 48 temp___534)
                                                                    true
                                                                    false) 
                                                                    (ite (<= temp___534 57)
                                                                    true
                                                                    false)) true)
                                                                    false
                                                                    true))
                                                                    (=>
                                                                    (not
                                                                    (= spark__branch2 true))
                                                                    (forall 
                                                                    ((o3 Bool))
                                                                    (=>
                                                                    (ite (= i1 10)
                                                                    (let ((o4 (abs v2)))
                                                                    (and
                                                                    (in_range4
                                                                    o4)
                                                                    (ite (< 214748364 o4)
                                                                    (= o3 true)
                                                                    (let ((o5 (abs v2)))
                                                                    (and
                                                                    (in_range4
                                                                    o5)
                                                                    (ite (= o5 214748364)
                                                                    (exists 
                                                                    ((o6 Int))
                                                                    (and
                                                                    (ite (= 
                                                                    is_pos true)
                                                                    (= o6 55)
                                                                    (= o6 56))
                                                                    (let ((o7 (+ (- i1 1) first2)))
                                                                    (and
                                                                    (in_range
                                                                    o7)
                                                                    (and
                                                                    (and
                                                                    (<= 
                                                                    (first
                                                                    s) o7)
                                                                    (<= o7 
                                                                    (last
                                                                    s)))
                                                                    (exists 
                                                                    ((o8 Int))
                                                                    (and
                                                                    (= 
                                                                    (to_rep
                                                                    (select 
                                                                    (to_array
                                                                    s) o7)) o8)
                                                                    (= o3 
                                                                    (ite (< o6 o8)
                                                                    true
                                                                    false)))))))))
                                                                    (= o3 false)))))))
                                                                    (= o3 false))
                                                                    (forall 
                                                                    ((spark__branch3 Bool))
                                                                    (=>
                                                                    (= spark__branch3 o3)
                                                                    (=>
                                                                    (not
                                                                    (= spark__branch3 true))
                                                                    (let ((o4 (+ (- i1 1) first2)))
                                                                    (=>
                                                                    (in_range
                                                                    o4)
                                                                    (=>
                                                                    (and
                                                                    (<= 
                                                                    (first
                                                                    s) o4)
                                                                    (<= o4 
                                                                    (last
                                                                    s)))
                                                                    (forall 
                                                                    ((o5 Int))
                                                                    (=>
                                                                    (= 
                                                                    (to_rep
                                                                    (select 
                                                                    (to_array
                                                                    s) o4)) o5)
                                                                    (let ((o6 
                                                                    (char_to_int
                                                                    o5)))
                                                                    (=>
                                                                    (and
                                                                    (in_range3
                                                                    o6)
                                                                    (= o6 
                                                                    (ite (= o5 48)
                                                                    0
                                                                    (ite (= o5 49)
                                                                    1
                                                                    (ite (= o5 50)
                                                                    2
                                                                    (ite (= o5 51)
                                                                    3
                                                                    (ite (= o5 52)
                                                                    4
                                                                    (ite (= o5 53)
                                                                    5
                                                                    (ite (= o5 54)
                                                                    6
                                                                    (ite (= o5 55)
                                                                    7
                                                                    (ite (= o5 56)
                                                                    8
                                                                    (ite (= o5 57)
                                                                    9
                                                                    (to_rep2
                                                                    dummy)))))))))))))
                                                                    (forall 
                                                                    ((o7 Int))
                                                                    (=>
                                                                    (ite (= 
                                                                    is_pos true)
                                                                    (= o7 1)
                                                                    (= o7 (- 1)))
                                                                    (let ((o8 (* o7 o6)))
                                                                    (=>
                                                                    (in_range4
                                                                    o8)
                                                                    (let ((o9 (* v2 10)))
                                                                    (=>
                                                                    (in_range4
                                                                    o9)
                                                                    (<= (+ o9 o8) 2147483647)))))))))))))))))))))))))))))))))))))))))))))))))))))))))))))))))))

(check-sat)
(get-info :reason-unknown)
